p edges 415 799
n 1 4e+20
n 2 6e+20
n 3 6e+20
n 4 1e+20
n 5 1e+20
n 6 2e+20
n 7 1e+20
n 8 1e+20
n 9 2e+20
n 10 1e+20
n 11 1e+20
n 12 1e+20
n 13 1e+20
n 14 6e+20
n 15 8e+20
n 16 1e+20
n 17 1e+20
n 18 4e+20
n 19 1e+20
n 20 1e+20
n 21 2e+20
n 22 1e+20
n 23 1e+20
n 24 1e+20
n 25 1e+20
n 26 6e+20
n 27 1e+20
n 28 1e+20
n 29 2e+20
n 30 1e+20
n 31 1e+20
n 32 1e+20
n 33 1e+20
n 34 1e+20
n 35 1e+20
n 36 6e+20
n 37 8e+20
n 38 1e+20
n 39 1e+20
n 40 4e+20
n 41 1e+20
n 42 1e+20
n 43 2e+20
n 44 1e+20
n 45 1e+20
n 46 1e+20
n 47 1e+20
n 48 8e+20
n 49 1e+20
n 50 1e+20
n 51 4e+20
n 52 1e+20
n 53 1e+20
n 54 1e+20
n 55 1e+20
n 56 1e+20
n 57 1e+20
n 58 6e+20
n 59 1e+20
n 60 1e+20
n 61 2e+20
n 62 1e+20
n 63 1e+20
n 64 1e+20
n 65 1e+20
n 66 1e+20
n 67 1e+20
n 68 6e+20
n 69 8e+20
n 70 1e+20
n 71 1e+20
n 72 4e+20
n 73 1e+20
n 74 1e+20
n 75 2e+20
n 76 1e+20
n 77 1e+20
n 78 1e+20
n 79 1e+20
n 80 8e+20
n 81 1e+20
n 82 1e+20
n 83 4e+20
n 84 1e+20
n 85 1e+20
n 86 1e+20
n 87 1e+20
n 88 1e+20
n 89 1e+20
n 90 8e+20
n 91 1e+20
n 92 1e+20
n 93 4e+20
n 94 1e+20
n 95 1e+20
n 96 1e+20
n 97 1e+20
n 98 1e+20
n 99 1e+20
n 100 6e+20
n 101 1e+20
n 102 1e+20
n 103 2e+20
n 104 1e+20
n 105 1e+20
n 106 1e+20
n 107 1e+20
n 108 1e+20
n 109 1e+20
n 110 6e+20
n 111 8e+20
n 112 1e+20
n 113 1e+20
n 114 4e+20
n 115 1e+20
n 116 1e+20
n 117 2e+20
n 118 1e+20
n 119 1e+20
n 120 1e+20
n 121 1e+20
n 122 8e+20
n 123 1e+20
n 124 1e+20
n 125 4e+20
n 126 1e+20
n 127 1e+20
n 128 1e+20
n 129 1e+20
n 130 1e+20
n 131 1e+20
n 132 5e+20
n 133 1e+20
n 134 1e+20
n 135 4e+20
n 136 1e+20
n 137 1e+20
n 138 1e+20
n 139 1e+20
n 140 1e+20
n 141 1e+20
n 142 4e+20
n 143 1e+20
n 144 1e+20
n 145 4e+20
n 146 1e+20
n 147 1e+20
n 148 1e+20
n 149 1e+20
n 150 1e+20
n 151 1e+20
n 152 2e+20
n 153 1e+20
n 154 1e+20
n 155 2e+20
n 156 1e+20
n 157 1e+20
n 158 1e+20
n 159 1e+20
n 160 1e+20
n 161 1e+20
n 162 2e+20
n 163 4e+20
n 164 1e+20
n 165 1e+20
n 166 4e+20
n 167 1e+20
n 168 1e+20
n 169 2e+20
n 170 1e+20
n 171 1e+20
n 172 1e+20
n 173 1e+20
n 174 4e+20
n 175 1e+20
n 176 1e+20
n 177 4e+20
n 178 1e+20
n 179 1e+20
n 180 1e+20
n 181 1e+20
n 182 1e+20
n 183 1e+20
n 184 3e+20
n 185 1e+20
n 186 1e+20
n 187 2e+20
n 188 1e+20
n 189 1e+20
n 190 1e+20
n 191 1e+20
n 192 1e+20
n 193 1e+20
n 194 1e+20
n 195 1e+20
n 196 1e+20
n 197 1e+20
n 198 1e+20
n 199 1e+20
n 200 1e+20
n 201 1e+20
n 202 1e+20
n 203 1e+20
n 204 1e+20
n 205 1e+20
n 206 1e+20
n 207 1e+20
n 208 1e+20
n 209 1e+20
n 210 1e+20
n 211 1e+20
n 212 1e+20
n 213 1e+20
n 214 1e+20
n 215 1e+20
n 216 1e+20
n 217 1e+20
n 218 1e+20
n 219 1e+20
n 220 1e+20
n 221 1e+20
n 222 1e+20
n 223 1e+20
n 224 1e+20
n 225 1e+20
n 226 1e+20
n 227 1e+20
n 228 1e+20
n 229 1e+20
n 230 1e+20
n 231 1e+20
n 232 1e+20
n 233 1e+20
n 234 1e+20
n 235 1e+20
n 236 1e+20
n 237 1e+20
n 238 1e+20
n 239 1e+20
n 240 1e+20
n 241 1e+20
n 242 1e+20
n 243 1e+20
n 244 1e+20
n 245 1e+20
n 246 1e+20
n 247 1e+20
n 248 1e+20
n 249 1e+20
n 250 1e+20
n 251 1e+20
n 252 1e+20
n 253 1e+20
n 254 1e+20
n 255 1e+20
n 256 1e+20
n 257 1e+20
n 258 1e+20
n 259 1e+20
n 260 1e+20
n 261 1e+20
n 262 1e+20
n 263 1e+20
n 264 1e+20
n 265 1e+20
n 266 1e+20
n 267 1e+20
n 268 1e+20
n 269 1e+20
n 270 1e+20
n 271 1e+20
n 272 1e+20
n 273 1e+20
n 274 1e+20
n 275 1e+20
n 276 1e+20
n 277 1e+20
n 278 1e+20
n 279 1e+20
n 280 1e+20
n 281 1e+20
n 282 1e+20
n 283 1e+20
n 284 1e+20
n 285 1e+20
n 286 1e+20
n 287 1e+20
n 288 1e+20
n 289 1e+20
n 290 1e+20
n 291 1e+20
n 292 1e+20
n 293 1e+20
n 294 1e+20
n 295 1e+20
n 296 1e+20
n 297 1e+20
n 298 1e+20
n 299 1e+20
n 300 1e+20
n 301 1e+20
n 302 1e+20
n 303 1e+20
n 304 1e+20
n 305 1e+20
n 306 1e+20
n 307 1e+20
n 308 1e+20
n 309 1e+20
n 310 1e+20
n 311 1e+20
n 312 1e+20
n 313 1e+20
n 314 1e+20
n 315 1e+20
n 316 1e+20
n 317 1e+20
n 318 1e+20
n 319 1e+20
n 320 1e+20
n 321 1e+20
n 322 1e+20
n 323 1e+20
n 324 1e+20
n 325 1e+20
n 326 1e+20
n 327 1e+20
n 328 1e+20
n 329 1e+20
n 330 1e+20
n 331 1e+20
n 332 1e+20
n 333 1e+20
n 334 1e+20
n 335 1e+20
n 336 1e+20
n 337 1e+20
n 338 1e+20
n 339 1e+20
n 340 1e+20
n 341 1e+20
n 342 1e+20
n 343 1e+20
n 344 1e+20
n 345 1e+20
n 346 1e+20
n 347 1e+20
n 348 1e+20
n 349 1e+20
n 350 1e+20
n 351 1e+20
n 352 1e+20
n 353 1e+20
n 354 1e+20
n 355 1e+20
n 356 1e+20
n 357 1e+20
n 358 1e+20
n 359 1e+20
n 360 1e+20
n 361 1e+20
n 362 1e+20
n 363 1e+20
n 364 1e+20
n 365 1e+20
n 366 1e+20
n 367 1e+20
n 368 1e+20
n 369 1e+20
n 370 1e+20
n 371 1e+20
n 372 1e+20
n 373 1e+20
n 374 1e+20
n 375 1e+20
n 376 1e+20
n 377 1e+20
n 378 1e+20
n 379 1e+20
n 380 1e+20
n 381 1e+20
n 382 1e+20
n 383 1e+20
n 384 1e+20
n 385 1e+20
n 386 1e+20
n 387 1e+20
n 388 1e+20
n 389 1e+20
n 390 1e+20
n 391 1e+20
n 392 1e+20
n 393 1e+20
n 394 1e+20
n 395 1e+20
n 396 1e+20
n 397 1e+20
n 398 1e+20
n 399 1e+20
n 400 1e+20
n 401 1e+20
n 402 1e+20
n 403 1e+20
n 404 1e+20
n 405 1e+20
n 406 1e+20
n 407 1e+20
n 408 1e+20
n 409 1e+20
n 410 1e+20
n 411 1e+20
n 412 1e+20
n 413 1e+20
n 414 1e+20
n 415 1e+20
e 4 5
e 5 1
e 4 2
e 4 3
e 7 8
e 8 1
e 7 2
e 7 6
e 10 11
e 11 1
e 10 9
e 10 3
e 12 13
e 13 1
e 12 9
e 12 6
e 16 17
e 17 2
e 16 9
e 16 14
e 16 15
e 19 20
e 20 2
e 19 9
e 19 14
e 19 18
e 22 23
e 23 2
e 22 9
e 22 21
e 22 15
e 24 25
e 25 2
e 24 9
e 24 21
e 24 18
e 27 28
e 28 3
e 27 6
e 27 15
e 27 26
e 30 31
e 31 3
e 30 6
e 30 15
e 30 29
e 32 33
e 33 3
e 32 6
e 32 18
e 32 26
e 34 35
e 35 3
e 34 6
e 34 18
e 34 29
e 38 39
e 39 14
e 38 21
e 38 36
e 38 37
e 41 42
e 42 14
e 41 21
e 41 36
e 41 40
e 44 45
e 45 14
e 44 21
e 44 43
e 44 37
e 46 47
e 47 14
e 46 21
e 46 43
e 46 40
e 49 50
e 50 15
e 49 18
e 49 37
e 49 48
e 52 53
e 53 15
e 52 18
e 52 37
e 52 51
e 54 55
e 55 15
e 54 18
e 54 40
e 54 48
e 56 57
e 57 15
e 56 18
e 56 40
e 56 51
e 59 60
e 60 26
e 59 29
e 59 48
e 59 58
e 62 63
e 63 26
e 62 29
e 62 48
e 62 61
e 64 65
e 65 26
e 64 29
e 64 51
e 64 58
e 66 67
e 67 26
e 66 29
e 66 51
e 66 61
e 70 71
e 71 36
e 70 43
e 70 68
e 70 69
e 73 74
e 74 36
e 73 43
e 73 68
e 73 72
e 76 77
e 77 36
e 76 43
e 76 75
e 76 69
e 78 79
e 79 36
e 78 43
e 78 75
e 78 72
e 81 82
e 82 37
e 81 40
e 81 69
e 81 80
e 84 85
e 85 37
e 84 40
e 84 69
e 84 83
e 86 87
e 87 37
e 86 40
e 86 72
e 86 80
e 88 89
e 89 37
e 88 40
e 88 72
e 88 83
e 91 92
e 92 48
e 91 51
e 91 80
e 91 90
e 94 95
e 95 48
e 94 51
e 94 80
e 94 93
e 96 97
e 97 48
e 96 51
e 96 83
e 96 90
e 98 99
e 99 48
e 98 51
e 98 83
e 98 93
e 101 102
e 102 58
e 101 61
e 101 90
e 101 100
e 104 105
e 105 58
e 104 61
e 104 90
e 104 103
e 106 107
e 107 58
e 106 61
e 106 93
e 106 100
e 108 109
e 109 58
e 108 61
e 108 93
e 108 103
e 112 113
e 113 68
e 112 75
e 112 110
e 112 111
e 115 116
e 116 68
e 115 75
e 115 110
e 115 114
e 118 119
e 119 68
e 118 75
e 118 117
e 118 111
e 120 121
e 121 68
e 120 75
e 120 117
e 120 114
e 123 124
e 124 69
e 123 72
e 123 111
e 123 122
e 126 127
e 127 69
e 126 72
e 126 111
e 126 125
e 128 129
e 129 69
e 128 72
e 128 114
e 128 122
e 130 131
e 131 69
e 130 72
e 130 114
e 130 125
e 133 134
e 134 80
e 133 83
e 133 122
e 133 132
e 136 137
e 137 80
e 136 83
e 136 122
e 136 135
e 138 139
e 139 80
e 138 83
e 138 125
e 138 132
e 140 141
e 141 80
e 140 83
e 140 125
e 140 135
e 143 144
e 144 90
e 143 93
e 143 132
e 143 142
e 146 147
e 147 90
e 146 93
e 146 132
e 146 145
e 148 149
e 149 90
e 148 93
e 148 135
e 148 142
e 150 151
e 151 90
e 150 93
e 150 135
e 150 145
e 153 154
e 154 100
e 153 103
e 153 142
e 153 152
e 156 157
e 157 100
e 156 103
e 156 142
e 156 155
e 158 159
e 159 100
e 158 103
e 158 145
e 158 152
e 160 161
e 161 100
e 160 103
e 160 145
e 160 155
e 164 165
e 165 110
e 164 117
e 164 162
e 164 163
e 167 168
e 168 110
e 167 117
e 167 162
e 167 166
e 170 171
e 171 110
e 170 117
e 170 169
e 170 163
e 172 173
e 173 110
e 172 117
e 172 169
e 172 166
e 175 176
e 176 111
e 175 114
e 175 163
e 175 174
e 178 179
e 179 111
e 178 114
e 178 163
e 178 177
e 180 181
e 181 111
e 180 114
e 180 166
e 180 174
e 182 183
e 183 111
e 182 114
e 182 166
e 182 177
e 185 186
e 186 122
e 185 125
e 185 174
e 185 184
e 188 189
e 189 122
e 188 125
e 188 174
e 188 187
e 190 191
e 191 122
e 190 125
e 190 177
e 190 184
e 192 193
e 193 122
e 192 125
e 192 177
e 192 187
e 195 196
e 196 132
e 195 135
e 195 184
e 195 194
e 1 197
e 2 197
e 3 197
e 1 198
e 2 198
e 6 198
e 1 199
e 9 199
e 3 199
e 1 200
e 9 200
e 6 200
e 2 201
e 14 201
e 15 201
e 2 202
e 14 202
e 18 202
e 2 203
e 21 203
e 15 203
e 2 204
e 21 204
e 18 204
e 3 205
e 15 205
e 26 205
e 3 206
e 15 206
e 29 206
e 3 207
e 18 207
e 26 207
e 3 208
e 18 208
e 29 208
e 14 209
e 36 209
e 37 209
e 14 210
e 36 210
e 40 210
e 14 211
e 43 211
e 37 211
e 14 212
e 43 212
e 40 212
e 15 213
e 37 213
e 48 213
e 15 214
e 37 214
e 51 214
e 15 215
e 40 215
e 48 215
e 15 216
e 40 216
e 51 216
e 26 217
e 48 217
e 58 217
e 26 218
e 48 218
e 61 218
e 26 219
e 51 219
e 58 219
e 26 220
e 51 220
e 61 220
e 36 221
e 68 221
e 69 221
e 36 222
e 68 222
e 72 222
e 36 223
e 75 223
e 69 223
e 36 224
e 75 224
e 72 224
e 37 225
e 69 225
e 80 225
e 37 226
e 69 226
e 83 226
e 37 227
e 72 227
e 80 227
e 37 228
e 72 228
e 83 228
e 48 229
e 80 229
e 90 229
e 48 230
e 80 230
e 93 230
e 48 231
e 83 231
e 90 231
e 48 232
e 83 232
e 93 232
e 58 233
e 90 233
e 100 233
e 58 234
e 90 234
e 103 234
e 58 235
e 93 235
e 100 235
e 58 236
e 93 236
e 103 236
e 68 237
e 110 237
e 111 237
e 68 238
e 110 238
e 114 238
e 68 239
e 117 239
e 111 239
e 68 240
e 117 240
e 114 240
e 69 241
e 111 241
e 122 241
e 69 242
e 111 242
e 125 242
e 69 243
e 114 243
e 122 243
e 69 244
e 114 244
e 125 244
e 80 245
e 122 245
e 132 245
e 80 246
e 122 246
e 135 246
e 80 247
e 125 247
e 132 247
e 80 248
e 125 248
e 135 248
e 90 249
e 132 249
e 142 249
e 90 250
e 132 250
e 145 250
e 90 251
e 135 251
e 142 251
e 90 252
e 135 252
e 145 252
e 100 253
e 142 253
e 152 253
e 100 254
e 142 254
e 155 254
e 100 255
e 145 255
e 152 255
e 100 256
e 145 256
e 155 256
e 110 257
e 162 257
e 163 257
e 110 258
e 162 258
e 166 258
e 110 259
e 169 259
e 163 259
e 110 260
e 169 260
e 166 260
e 111 261
e 163 261
e 174 261
e 111 262
e 163 262
e 177 262
e 111 263
e 166 263
e 174 263
e 111 264
e 166 264
e 177 264
e 122 265
e 174 265
e 184 265
e 122 266
e 174 266
e 187 266
e 122 267
e 177 267
e 184 267
e 122 268
e 177 268
e 187 268
e 132 269
e 184 269
e 194 269
e 270 271
e 271 2
e 270 3
e 272 273
e 273 2
e 272 6
e 274 275
e 275 9
e 274 3
e 276 277
e 277 9
e 276 6
e 278 279
e 279 14
e 278 15
e 280 281
e 281 14
e 280 18
e 282 283
e 283 21
e 282 15
e 284 285
e 285 21
e 284 18
e 286 287
e 287 15
e 286 26
e 288 289
e 289 15
e 288 29
e 290 291
e 291 18
e 290 26
e 292 293
e 293 18
e 292 29
e 294 295
e 295 36
e 294 37
e 296 297
e 297 36
e 296 40
e 298 299
e 299 43
e 298 37
e 300 301
e 301 43
e 300 40
e 302 303
e 303 37
e 302 48
e 304 305
e 305 37
e 304 51
e 306 307
e 307 40
e 306 48
e 308 309
e 309 40
e 308 51
e 310 311
e 311 48
e 310 58
e 312 313
e 313 48
e 312 61
e 314 315
e 315 51
e 314 58
e 316 317
e 317 51
e 316 61
e 318 319
e 319 68
e 318 69
e 320 321
e 321 68
e 320 72
e 322 323
e 323 75
e 322 69
e 324 325
e 325 75
e 324 72
e 326 327
e 327 69
e 326 80
e 328 329
e 329 69
e 328 83
e 330 331
e 331 72
e 330 80
e 332 333
e 333 72
e 332 83
e 334 335
e 335 80
e 334 90
e 336 337
e 337 80
e 336 93
e 338 339
e 339 83
e 338 90
e 340 341
e 341 83
e 340 93
e 342 343
e 343 90
e 342 100
e 344 345
e 345 90
e 344 103
e 346 347
e 347 93
e 346 100
e 348 349
e 349 93
e 348 103
e 350 351
e 351 110
e 350 111
e 352 353
e 353 110
e 352 114
e 354 355
e 355 117
e 354 111
e 356 357
e 357 117
e 356 114
e 358 359
e 359 111
e 358 122
e 360 361
e 361 111
e 360 125
e 362 363
e 363 114
e 362 122
e 364 365
e 365 114
e 364 125
e 366 367
e 367 122
e 366 132
e 368 369
e 369 122
e 368 135
e 370 371
e 371 125
e 370 132
e 372 373
e 373 125
e 372 135
e 374 375
e 375 132
e 374 142
e 376 377
e 377 132
e 376 145
e 378 379
e 379 135
e 378 142
e 380 381
e 381 135
e 380 145
e 382 383
e 383 142
e 382 152
e 384 385
e 385 142
e 384 155
e 386 387
e 387 145
e 386 152
e 388 389
e 389 145
e 388 155
e 390 391
e 391 162
e 390 163
e 392 393
e 393 162
e 392 166
e 394 395
e 395 169
e 394 163
e 396 397
e 397 169
e 396 166
e 398 399
e 399 163
e 398 174
e 400 401
e 401 163
e 400 177
e 402 403
e 403 166
e 402 174
e 404 405
e 405 166
e 404 177
e 406 407
e 407 174
e 406 184
e 408 409
e 409 174
e 408 187
e 410 411
e 411 177
e 410 184
e 412 413
e 413 177
e 412 187
e 414 415
e 415 184
e 414 194
